62      4       
14      12      13      15      
0       0       0       0       0       3       2       3       4       
2       0       0       1       0       3       16      33      44      
3       0       2       0       0       3       5       13      23      
7       0       0       2       0       3       15      24      26      
9       0       0       0       10      3       6       14      39      
1       2       0       0       0       3       7       10      18      
2       0       0       0       1       3       8       9       19      
4       9       0       0       0       1       21      
7       0       0       0       8       3       11      20      31      
1       0       0       0       1       2       12      21      
5       0       0       5       0       3       30      47      53      
6       0       0       4       0       1       29      
4       4       0       0       0       1       52      
6       9       0       0       0       1       40      
7       0       0       0       2       1       36      
4       0       6       0       0       3       17      22      32      
4       0       1       0       0       1       38      
9       0       9       0       0       1       35      
8       0       0       0       2       3       27      35      38      
5       0       0       3       0       1       46      
1       1       0       0       0       1       46      
9       0       4       0       0       1       43      
9       5       0       0       0       1       28      
9       0       3       0       0       2       25      51      
4       0       0       0       5       1       57      
2       0       0       0       2       1       48      
10      0       0       7       0       1       42      
1       6       0       0       0       1       49      
8       0       0       0       5       1       41      
2       0       2       0       0       2       37      48      
1       0       0       0       9       2       34      36      
4       9       0       0       0       1       55      
10      1       0       0       0       1       41      
5       0       0       7       0       1       57      
9       0       0       0       10      3       42      55      58      
5       0       0       0       8       1       45      
7       0       0       0       1       1       45      
1       0       0       5       0       1       54      
1       0       0       0       1       1       43      
4       0       0       10      0       1       41      
1       2       0       0       0       1       49      
4       4       0       0       0       1       56      
7       0       0       0       9       1       54      
3       0       2       0       0       2       50      60      
9       0       0       0       8       1       61      
7       0       0       0       10      1       53      
6       0       0       6       0       1       54      
8       10      0       0       0       1       56      
6       0       3       0       0       1       58      
10      9       0       0       0       1       56      
2       10      0       0       0       3       52      53      58      
3       0       0       0       4       1       60      
2       10      0       0       0       1       59      
7       0       0       5       0       1       59      
3       0       0       0       8       1       61      
9       0       8       0       0       2       57      59      
1       0       0       0       10      1       61      
1       0       5       0       0       1       60      
6       5       0       0       0       1       62      
3       0       10      0       0       1       62      
2       0       5       0       0       1       62      
0       0       0       0       0       0       